12 48 3 10
6 6 9 9 7 20 20 7 9 20 3 7 15 1 17 6 14 12 6 13 5 13 7 8 7 16 5 5 19 11 20 7 20 7 15 3 9 12 4 10 14 18 8 2 1 5 3 12 
3.8 7.63 3.33 5.75 5.03 3.08 6.81 2.97 0.85 5.24 5.92 2.89 6.83 6.74 0.75 3.95 2.91 3.51 2.85 2.6 1.41 4.4 4.23 3.85 5.6 0.11 1.48 0.15 7.77 3.66 3.03 1.04 0.11 5.31 1.28 0.29 1.39 4.01 5.65 0.25 0.22 6.07 3.58 1.01 7.73 0.15 0.55 0.36 
3.03 5.93 3.02 6.15 6.86 4.27 7 0.73 7.93 1.13 3.63 3.96 7.74 4.57 3.82 3.22 6.26 7.81 2.5 0.93 2.14 3.89 3.18 6.06 2.68 2.49 2.4 1.37 5.76 6.77 7.28 5.5 3.62 1.34 4.79 1.53 6.12 2.54 0.72 3.1 0.94 0.01 6.54 0.5 7.42 5.25 4.3 5.63 
2.89 0.6 5.93 5.47 4.59 3.1 0.46 3.55 5.72 2.77 1.27 0.89 7.91 7.02 3.83 7.16 6.74 3.4 5.6 4.56 0.44 4.81 7.9 0.93 3.65 4.22 1.01 4.28 4.96 3.85 5.28 1.72 0.17 2.66 5.54 2.43 0.49 3.9 2.13 7.6 3.86 7 7.97 2.45 5.83 4.74 7.55 6.17 
4 4 4 4 4 4 4 4 4 4 4 4 4 4 4 4 4 4 4 4 4 4 4 4 4 4 4 4 4 4 4 4 4 4 4 4 4 4 4 4 4 4 4 4 4 4 4 4 
1.22 1.76 6.93 1.49 7.1 1 2.9 7.62 7.87 4.03 1.16 0.07 0.06 8 0.23 2.79 4.31 1.57 3.23 3.33 4.62 0.19 2.02 4.66 2.76 6.17 3.94 5.74 0.6 3.47 5.28 5.11 3.6 6.59 2.61 4.41 7.69 5.17 0.44 0.35 6.17 4.79 5.89 2.73 2.98 7.99 5.59 5.96 
1.16 6.6 7.07 4.42 3.47 0.07 5.68 3.53 3.93 0.61 1.94 3.68 3.52 4.83 1.14 0.2 2.56 2.89 4.31 2.29 6.94 7.37 2.48 1.52 7.75 3.1 7.36 2.37 1.31 3.3 5.56 2.76 7.78 4.81 6.36 2.14 5.98 2.31 0.06 2.85 5.71 7.89 7.81 6.08 5.25 6.18 7.12 7.86 
1.06 2.44 5.64 1.19 3.72 4.11 3.56 0.66 2.28 3.24 3.58 5.54 4.98 3.32 6.45 4.8 3.81 4.71 2.25 5.65 7.36 7.88 5.17 5.58 0.1 6.84 4.6 0.74 1.32 5.76 0.44 2.54 4.42 2.69 1 4.61 2.55 6.21 3.76 7.5 5.23 7.73 2.25 2.28 2.44 2.4 5.18 4.17 
3.92 7.97 1.79 7.92 0.08 6.31 5.35 3.12 2.83 2.44 3.61 7.14 4.73 4.54 2.49 6.01 7.57 6.88 2.07 3.32 1.19 2.5 5.14 0.13 2.29 3.82 5.53 3.47 1.07 4.36 0.2 4.86 2.01 0.12 1.19 1.86 1.68 4.38 4.65 3.04 2.25 5.44 5.37 5.99 6.38 6.91 1.23 2.37 
0.37 0.16 3.98 7.44 2.2 1.33 0.38 3.36 1.07 1.18 1.06 4.91 7.21 7.07 4.74 6.65 1.56 3.75 1.83 6.75 2.28 7.58 7.43 2.13 0.12 3.97 5.43 0.36 2.06 5.17 4.14 7.65 0.79 5.78 1.04 1.24 4.7 2.89 3.4 1.44 6.25 7.87 2.96 4.16 4.33 4.98 4.28 2.04 
6.78 3.86 1.81 7.71 2.97 0.26 7.91 4.9 4.02 4.38 2.38 6.35 2.22 4.98 2.9 7.8 0.5 1.17 6.54 5.17 2.6 7.58 5.24 5.44 7.22 3.46 6.61 0.13 6.41 2.22 4.01 1.6 1.61 2.86 0.42 3.14 0.63 2.28 2.59 2.19 7.01 4.13 0.09 7.38 2.71 1.93 4.05 1.41 
4.36 0.65 1.86 4.42 5.82 1.45 5.86 6.61 0.98 7.3 4.65 3.74 1.73 3.67 1.75 7.25 5.96 5.77 1.97 5.23 1.54 6.33 6.47 0.08 3.07 1.87 6.23 1.1 0.7 5.39 5.2 5.19 2.01 4.71 2.99 0.73 7.42 6.37 4 3.32 2.86 5.92 5.83 6.21 1.03 0.46 6.16 2.55 
5.29 6.5 1.94 1.21 6.45 6.27 5.97 7.31 4 3.1 5.69 0.1 7.06 7.38 6.06 1.22 0.39 3.08 3.18 1.04 7.33 2.49 6.62 2.89 7.34 2.01 2.45 4.72 2.6 7.1 0.81 7.31 4.34 2.27 0.88 6.38 2.27 0.31 6.74 0.95 2.78 5.61 1.44 5.2 1.84 6.04 0.23 6.15 
1 1 1 1 1 1 1 1 1 1 1 1 1 1 1 1 1 1 1 1 1 1 1 1 1 1 1 1 1 1 1 1 1 1 1 1 1 1 1 1 1 1 1 1 1 1 1 1 
1 1 1 1 1 1 1 1 1 1 1 1 1 1 1 1 1 1 1 1 1 1 1 1 1 1 1 1 1 1 1 1 1 1 1 1 1 1 1 1 1 1 1 1 1 1 1 1 
1 1 1 1 1 1 1 1 1 1 1 1 1 1 1 1 1 1 1 1 1 1 1 1 1 1 1 1 1 1 1 1 1 1 1 1 1 1 1 1 1 1 1 1 1 1 1 1 
1 1 1 1 1 1 1 1 1 1 1 1 1 1 1 1 1 1 1 1 1 1 1 1 1 1 1 1 1 1 1 1 1 1 1 1 1 1 1 1 1 1 1 1 1 1 1 1 
1 1 1 1 1 1 1 1 1 1 1 1 1 1 1 1 1 1 1 1 1 1 1 1 1 1 1 1 1 1 1 1 1 1 1 1 1 1 1 1 1 1 1 1 1 1 1 1 
1 1 1 1 1 1 1 1 1 1 1 1 1 1 1 1 1 1 1 1 1 1 1 1 1 1 1 1 1 1 1 1 1 1 1 1 1 1 1 1 1 1 1 1 1 1 1 1 
1 1 1 1 1 1 1 1 1 1 1 1 1 1 1 1 1 1 1 1 1 1 1 1 1 1 1 1 1 1 1 1 1 1 1 1 1 1 1 1 1 1 1 1 1 1 1 1 
1 1 1 1 1 1 1 1 1 1 1 1 1 1 1 1 1 1 1 1 1 1 1 1 1 1 1 1 1 1 1 1 1 1 1 1 1 1 1 1 1 1 1 1 1 1 1 1 
1 1 1 1 1 1 1 1 1 1 1 1 1 1 1 1 1 1 1 1 1 1 1 1 1 1 1 1 1 1 1 1 1 1 1 1 1 1 1 1 1 1 1 1 1 1 1 1 
1 1 1 1 1 1 1 1 1 1 1 1 1 1 1 1 1 1 1 1 1 1 1 1 1 1 1 1 1 1 1 1 1 1 1 1 1 1 1 1 1 1 1 1 1 1 1 1 
1 1 1 1 1 1 1 1 1 1 1 1 1 1 1 1 1 1 1 1 1 1 1 1 1 1 1 1 1 1 1 1 1 1 1 1 1 1 1 1 1 1 1 1 1 1 1 1 
1 1 1 1 1 1 1 1 1 1 1 1 1 1 1 1 1 1 1 1 1 1 1 1 1 1 1 1 1 1 1 1 1 1 1 1 1 1 1 1 1 1 1 1 1 1 1 1 
0.01 0.01 0.01 0.01 0.01 0.01 0.01 0.01 0.01 0.01 0.01 0.01 0.01 0.01 0.01 0.01 0.01 0.01 0.01 0.01 0.01 0.01 0.01 0.01 0.01 0.01 0.01 0.01 0.01 0.01 0.01 0.01 0.01 0.01 0.01 0.01 0.01 0.01 0.01 0.01 0.01 0.01 0.01 0.01 0.01 0.01 0.01 0.01 
0.02 0.02 0.02 0.02 0.02 0.02 0.02 0.02 0.02 0.02 0.02 0.02 0.02 0.02 0.02 0.02 0.02 0.02 0.02 0.02 0.02 0.02 0.02 0.02 0.02 0.02 0.02 0.02 0.02 0.02 0.02 0.02 0.02 0.02 0.02 0.02 0.02 0.02 0.02 0.02 0.02 0.02 0.02 0.02 0.02 0.02 0.02 0.02 
0.03 0.03 0.03 0.03 0.03 0.03 0.03 0.03 0.03 0.03 0.03 0.03 0.03 0.03 0.03 0.03 0.03 0.03 0.03 0.03 0.03 0.03 0.03 0.03 0.03 0.03 0.03 0.03 0.03 0.03 0.03 0.03 0.03 0.03 0.03 0.03 0.03 0.03 0.03 0.03 0.03 0.03 0.03 0.03 0.03 0.03 0.03 0.03 
0.04 0.04 0.04 0.04 0.04 0.04 0.04 0.04 0.04 0.04 0.04 0.04 0.04 0.04 0.04 0.04 0.04 0.04 0.04 0.04 0.04 0.04 0.04 0.04 0.04 0.04 0.04 0.04 0.04 0.04 0.04 0.04 0.04 0.04 0.04 0.04 0.04 0.04 0.04 0.04 0.04 0.04 0.04 0.04 0.04 0.04 0.04 0.04 
0.125 0.125 0.125 0.125 0.125 0.125 0.125 0.125 0.125 0.125 0.125 0.125 0.125 0.125 0.125 0.125 0.125 0.125 0.125 0.125 0.125 0.125 0.125 0.125 0.125 0.125 0.125 0.125 0.125 0.125 0.125 0.125 0.125 0.125 0.125 0.125 0.125 0.125 0.125 0.125 0.125 0.125 0.125 0.125 0.125 0.125 0.125 0.125 
0.25 0.25 0.25 0.25 0.25 0.25 0.25 0.25 0.25 0.25 0.25 0.25 0.25 0.25 0.25 0.25 0.25 0.25 0.25 0.25 0.25 0.25 0.25 0.25 0.25 0.25 0.25 0.25 0.25 0.25 0.25 0.25 0.25 0.25 0.25 0.25 0.25 0.25 0.25 0.25 0.25 0.25 0.25 0.25 0.25 0.25 0.25 0.25 
0.375 0.375 0.375 0.375 0.375 0.375 0.375 0.375 0.375 0.375 0.375 0.375 0.375 0.375 0.375 0.375 0.375 0.375 0.375 0.375 0.375 0.375 0.375 0.375 0.375 0.375 0.375 0.375 0.375 0.375 0.375 0.375 0.375 0.375 0.375 0.375 0.375 0.375 0.375 0.375 0.375 0.375 0.375 0.375 0.375 0.375 0.375 0.375 
0.5 0.5 0.5 0.5 0.5 0.5 0.5 0.5 0.5 0.5 0.5 0.5 0.5 0.5 0.5 0.5 0.5 0.5 0.5 0.5 0.5 0.5 0.5 0.5 0.5 0.5 0.5 0.5 0.5 0.5 0.5 0.5 0.5 0.5 0.5 0.5 0.5 0.5 0.5 0.5 0.5 0.5 0.5 0.5 0.5 0.5 0.5 0.5 
0.625 0.625 0.625 0.625 0.625 0.625 0.625 0.625 0.625 0.625 0.625 0.625 0.625 0.625 0.625 0.625 0.625 0.625 0.625 0.625 0.625 0.625 0.625 0.625 0.625 0.625 0.625 0.625 0.625 0.625 0.625 0.625 0.625 0.625 0.625 0.625 0.625 0.625 0.625 0.625 0.625 0.625 0.625 0.625 0.625 0.625 0.625 0.625 
0.75 0.75 0.75 0.75 0.75 0.75 0.75 0.75 0.75 0.75 0.75 0.75 0.75 0.75 0.75 0.75 0.75 0.75 0.75 0.75 0.75 0.75 0.75 0.75 0.75 0.75 0.75 0.75 0.75 0.75 0.75 0.75 0.75 0.75 0.75 0.75 0.75 0.75 0.75 0.75 0.75 0.75 0.75 0.75 0.75 0.75 0.75 0.75 
0.875 0.875 0.875 0.875 0.875 0.875 0.875 0.875 0.875 0.875 0.875 0.875 0.875 0.875 0.875 0.875 0.875 0.875 0.875 0.875 0.875 0.875 0.875 0.875 0.875 0.875 0.875 0.875 0.875 0.875 0.875 0.875 0.875 0.875 0.875 0.875 0.875 0.875 0.875 0.875 0.875 0.875 0.875 0.875 0.875 0.875 0.875 0.875 
1 1 1 1 1 1 1 1 1 1 1 1 1 1 1 1 1 1 1 1 1 1 1 1 1 1 1 1 1 1 1 1 1 1 1 1 1 1 1 1 1 1 1 1 1 1 1 1 
